
List of user-set options:

                                    Name   Value                used
                           compl_inf_tol = 1                     yes
                         constr_viol_tol = 1                     yes
                            dual_inf_tol = 1000                  yes
                           linear_solver = ma97                  yes
                              ma86_small = 1e-30                  no
                                  ma86_u = 0.0001                 no
                              ma97_order = best                  yes
                              ma97_small = 1e-30                 yes
                            ma97_switch1 = at_start              yes
                            ma97_switch2 = od_hd_reuse           yes
                                  ma97_u = 1e-06                 yes
                               ma97_umax = 0.5                   yes
                                max_iter = 1000                  yes
                    max_refinement_steps = 20                    yes
                    min_refinement_steps = 5                     yes
                                 mu_init = 1e-06                 yes
           mu_superlinear_decrease_power = 1.25                  yes
                   nlp_scaling_min_value = 1e-08                 yes
                        option_file_name = Preset_Case_669_pf.opt  yes
                             output_file = ./tmp/Preset_Case_669_pf.output  yes
                      print_user_options = yes                   yes
        required_infeasibility_reduction = 1                      no
                                     tol = 1e-08                 yes
                   warm_start_bound_frac = 1e-20                 yes
                   warm_start_bound_push = 1e-20                 yes
                   warm_start_init_point = yes                   yes
              warm_start_mult_bound_push = 1e-20                 yes
                warm_start_mult_init_max = 1e+40                 yes
             warm_start_slack_bound_frac = 1e-20                 yes
             warm_start_slack_bound_push = 1e-20                 yes

******************************************************************************
This program contains Ipopt, a library for large-scale nonlinear optimization.
 Ipopt is released as open source code under the Eclipse Public License (EPL).
         For more information visit http://projects.coin-or.org/Ipopt
******************************************************************************

This is Ipopt version 3.12.10, running with linear solver ma97.

Number of nonzeros in equality constraint Jacobian...:   123443
Number of nonzeros in inequality constraint Jacobian.:      213
Number of nonzeros in Lagrangian Hessian.............:    49069

Total number of variables............................:    31591
                     variables with only lower bounds:    12912
                variables with lower and upper bounds:    15130
                     variables with only upper bounds:        0
Total number of equality constraints.................:    31483
Total number of inequality constraints...............:       25
        inequality constraints with only lower bounds:        4
   inequality constraints with lower and upper bounds:        0
        inequality constraints with only upper bounds:       21

iter    objective    inf_pr   inf_du lg(mu)  ||d||  lg(rg) alpha_du alpha_pr  ls
   0 -5.1847463e+00 4.04e-03 1.02e+00  -6.0 0.00e+00    -  0.00e+00 0.00e+00   0
   1 -5.1843105e+00 7.85e-02 1.02e+00  -6.0 2.98e+05    -  1.37e-04 8.03e-05h  5
   2 -5.1859869e+00 7.83e-02 3.11e+01  -6.0 7.52e+03    -  1.38e-01 2.02e-03h  1
   3 -5.1869705e+00 1.37e+00 3.11e+01  -6.0 1.75e+06    -  1.28e-04 1.36e-04f  1
   4 -5.3236884e+00 8.07e+00 3.73e+02  -6.0 7.47e+03    -  3.24e-02 1.63e-01f  1
   5 -5.4030781e+00 1.77e+01 4.54e+02  -6.0 5.76e+03    -  2.23e-02 1.18e-01h  1
   6 -5.5114810e+00 2.77e+01 5.96e+02  -6.0 4.83e+03    -  9.38e-02 1.86e-01h  1
   7 -5.5727379e+00 3.77e+01 5.93e+02  -6.0 6.02e+03    -  4.35e-02 1.36e-01h  1
   8 -5.5756297e+00 3.74e+01 5.89e+02  -6.0 8.36e+03    -  8.45e-02 8.01e-03h  1
   9 -5.5615951e+00 2.86e-02 1.99e+02  -6.0 2.97e+00  -4.0 9.43e-03 1.00e+00h  1
iter    objective    inf_pr   inf_du lg(mu)  ||d||  lg(rg) alpha_du alpha_pr  ls
  10 -5.5653537e+00 1.17e-02 9.17e+01  -6.0 8.50e+00  -4.5 5.41e-01 5.91e-01h  1
  11 -5.6054582e+00 2.79e-01 6.16e+01  -6.0 4.88e+01  -5.0 3.20e-01 2.60e-01h  1
  12 -5.6520633e+00 6.43e-01 1.19e+02  -6.0 3.61e+01  -5.4 3.03e-01 4.93e-01h  1
  13 -5.8264647e+00 8.96e+01 8.68e+02  -6.0 5.53e+03    -  3.14e-01 4.79e-01f  1
  14 -5.8264230e+00 8.40e+01 8.12e+02  -6.0 3.05e+03    -  1.05e-01 6.49e-02h  1
  15 -5.7985059e+00 3.21e+01 4.13e+03  -6.0 3.92e+01  -5.9 1.18e-01 6.18e-01h  1
  16 -5.8034477e+00 2.80e+01 3.58e+03  -6.0 2.92e+03    -  8.70e-02 1.32e-01h  1
  17 -5.7898673e+00 5.92e+00 2.22e+02  -6.0 5.66e+02  -6.4 6.87e-01 9.38e-01h  1
  18 -5.7951519e+00 2.80e+00 8.47e+00  -6.0 3.85e+02  -6.9 5.28e-01 1.00e+00h  1
  19 -5.7947363e+00 8.33e-01 3.24e+00  -6.0 1.29e+00  -4.6 1.00e+00 7.02e-01h  1
iter    objective    inf_pr   inf_du lg(mu)  ||d||  lg(rg) alpha_du alpha_pr  ls
  20 -5.7946297e+00 1.18e-04 5.44e-03  -6.0 2.09e+00  -5.1 1.00e+00 1.00e+00h  1
  21 -5.7949240e+00 1.08e-03 2.72e-02  -6.0 6.04e+00  -5.6 1.00e+00 1.00e+00h  1
  22 -5.7957455e+00 9.45e-03 1.42e-01  -6.0 1.79e+01  -6.1 1.00e+00 1.00e+00h  1
  23 -5.7980729e+00 9.03e-02 5.81e-01  -6.0 5.53e+01  -6.5 1.00e+00 1.00e+00h  1
  24 -5.8066834e+00 1.33e+00 5.93e+00  -6.0 2.12e+02  -7.0 1.00e+00 1.00e+00h  1
  25 -5.8070222e+00 1.33e+00 1.47e+02  -6.0 3.67e+04  -7.5 4.77e-03 1.76e-04h  1
  26 -5.8088308e+00 1.72e+00 1.49e+03  -6.0 3.35e+03    -  6.95e-02 8.72e-02h  1
  27 -5.8097949e+00 1.61e+00 8.92e+04  -6.0 2.75e+02  -8.0 1.00e+00 6.45e-02h  1
  28 -5.8250809e+00 2.71e+00 2.84e+03  -6.0 3.37e+02  -8.4 7.45e-01 9.72e-01h  1
  29 -5.8310859e+00 1.53e+00 7.42e+04  -6.0 5.41e+02  -8.9 1.22e-01 3.29e-01h  1
iter    objective    inf_pr   inf_du lg(mu)  ||d||  lg(rg) alpha_du alpha_pr  ls
  30 -5.8495583e+00 1.36e+00 4.73e+05  -6.0 2.21e+02  -7.6 1.31e-01 1.00e+00h  1
  31 -5.8526490e+00 1.26e+00 1.08e+05  -6.0 3.63e+02  -8.1 3.38e-01 9.99e-02h  1
  32 -5.8533959e+00 1.24e+00 2.25e+06  -6.0 4.47e+02  -8.5 7.78e-01 2.01e-02h  1
  33r-5.8533959e+00 1.24e+00 1.00e+03   0.1 0.00e+00  -9.0 0.00e+00 4.48e-07R  2
  34r-5.8719261e+00 1.24e+00 1.00e+03   0.1 1.27e+04    -  1.72e-06 1.51e-06f  1
  35 -5.8715219e+00 1.21e+00 1.21e+04  -6.0 9.51e+00    -  1.35e-02 2.10e-02h  1
  36 -5.8691578e+00 1.06e+00 9.57e+04  -6.0 9.43e+00    -  2.10e-02 1.23e-01h  1
  37 -5.8677149e+00 9.74e-01 8.76e+04  -6.0 8.45e+00    -  4.36e-01 8.43e-02h  1
  38 -5.8677082e+00 9.73e-01 8.75e+04  -6.0 9.05e+00    -  3.18e-01 9.24e-04h  1
  39 -5.8555379e+00 2.32e-01 2.07e+04  -6.0 8.73e+00    -  5.96e-01 7.63e-01h  1
iter    objective    inf_pr   inf_du lg(mu)  ||d||  lg(rg) alpha_du alpha_pr  ls
  40 -5.8538872e+00 1.32e-01 1.18e+04  -6.0 2.82e+00    -  9.08e-01 4.29e-01h  1
  41 -5.8553795e+00 1.24e-01 4.91e+01  -6.0 2.88e+01  -5.0 7.75e-01 1.00e+00h  1
  42 -5.8586681e+00 1.32e-01 5.43e+00  -6.0 6.50e+01    -  8.48e-01 1.00e+00h  1
  43 -5.8645611e+00 3.77e-01 3.01e+00  -6.0 1.08e+02    -  9.62e-01 1.00e+00h  1
  44 -5.8647786e+00 4.13e-01 1.56e+03  -6.0 2.90e+02    -  5.07e-01 1.00e+00H  1
  45 -5.8665119e+00 7.34e-01 1.20e+03  -6.0 2.71e+02    -  5.63e-01 2.30e-01h  1
  46 -5.8693318e+00 9.21e-01 4.22e+00  -6.0 3.90e+02    -  5.62e-01 1.00e+00H  1
  47 -5.8644051e+00 1.54e-03 4.65e+00  -6.0 6.14e+00  -5.5 3.69e-02 1.00e+00h  1
  48 -5.8648410e+00 7.35e-01 1.85e+01  -6.0 1.15e+03    -  8.84e-01 1.55e-01h  2
  49 -5.8649472e+00 5.17e-03 4.18e+00  -6.0 1.12e+01  -5.9 7.78e-01 1.00e+00h  1
iter    objective    inf_pr   inf_du lg(mu)  ||d||  lg(rg) alpha_du alpha_pr  ls
  50 -5.8653239e+00 1.13e-02 2.83e-01  -6.0 1.65e+01  -6.4 1.00e+00 1.00e+00h  1
  51 -5.8655857e+00 1.05e-02 2.88e-01  -6.0 1.60e+01  -6.9 1.00e+00 1.00e+00h  1
  52 -5.8654016e+00 3.72e-03 1.26e+00  -6.0 1.43e+01  -7.4 1.00e+00 1.00e+00H  1
  53 -5.8654344e+00 1.81e-03 7.75e+00  -6.0 2.81e+01  -7.9 1.00e+00 3.45e-01h  1
  54 -5.8654955e+00 2.99e-04 3.04e-01  -6.0 7.69e+01  -8.3 1.00e+00 1.00e+00F  1
  55 -5.8656342e+00 2.50e-03 1.23e+01  -6.0 1.76e+02  -8.8 1.00e+00 1.00e+00H  1
  56 -5.8659239e+00 1.11e-01 1.79e+00  -6.0 5.55e+02  -9.3 1.00e+00 1.00e+00H  1
  57 -5.8659692e+00 3.31e-01 3.51e+00  -6.0 1.80e+03  -9.8 1.35e-01 5.69e-02h  5
  58 -5.8663416e+00 7.28e-01 4.32e+00  -6.0 8.41e+02  -9.3 6.96e-01 1.00e+00H  1
  59 -5.8673319e+00 9.66e+01 3.79e+01  -6.0 2.59e+03  -9.8 3.06e-01 8.32e-01h  1
iter    objective    inf_pr   inf_du lg(mu)  ||d||  lg(rg) alpha_du alpha_pr  ls
  60 -5.8673785e+00 9.16e+01 9.74e+04  -6.0 5.22e+03    -  6.45e-02 3.07e-01h  1
  61 -5.8676190e+00 7.88e+01 1.89e+05  -6.0 4.07e+03  -9.4 9.03e-04 2.05e-01h  1
  62 -5.8675512e+00 3.87e-02 9.34e+04  -6.0 6.88e+01  -8.1 2.17e-01 1.00e+00h  1
  63 -5.8678243e+00 4.03e+00 8.16e+04  -6.0 3.67e+03    -  6.12e-02 1.26e-01h  1
  64 -5.8678367e+00 5.81e+00 6.46e+04  -6.0 2.06e+03    -  2.19e-01 2.08e-01h  1
  65 -5.8678238e+00 6.34e+00 4.86e+04  -6.0 1.33e+03    -  3.26e-01 2.48e-01h  1
  66 -5.8678123e+00 2.10e+01 4.50e+04  -6.0 4.33e+03    -  9.49e-05 7.55e-02H  1
  67 -5.8676886e+00 5.81e+00 9.21e+03  -6.0 3.54e+02    -  1.00e+00 7.95e-01h  1
  68 -5.8676257e+00 2.15e+00 1.08e+02  -6.0 3.49e+02    -  1.00e+00 1.00e+00h  1
  69 -5.8676014e+00 2.05e-02 2.59e-01  -6.0 3.64e+01    -  1.00e+00 1.00e+00h  1
iter    objective    inf_pr   inf_du lg(mu)  ||d||  lg(rg) alpha_du alpha_pr  ls
  70 -5.8675994e+00 8.92e-04 3.98e-04  -6.0 7.62e+00    -  1.00e+00 1.00e+00h  1
  71 -5.8675992e+00 6.93e-06 3.31e-06  -6.0 6.71e-01    -  1.00e+00 1.00e+00h  1
  72 -5.8677701e+00 4.16e+00 5.28e+01  -7.5 6.71e+02    -  5.93e-01 7.75e-01h  1
  73 -5.8677564e+00 1.20e+00 7.89e+01  -7.5 2.17e+02    -  2.45e-01 8.45e-01h  1
  74 -5.8677486e+00 5.21e-02 9.20e-02  -7.5 5.60e+01    -  1.00e+00 1.00e+00h  1
  75 -5.8677477e+00 3.25e-04 1.49e-04  -7.5 4.46e+00    -  1.00e+00 1.00e+00h  1
  76 -5.8677477e+00 2.85e-10 5.61e-10  -7.5 2.95e-03    -  1.00e+00 1.00e+00h  1
  77 -5.8677494e+00 8.89e-03 8.34e-01  -9.0 2.83e+01    -  9.26e-01 8.36e-01h  1
  78 -5.8677496e+00 3.58e-04 2.46e-01  -9.0 4.73e+00    -  9.43e-01 1.00e+00h  1
  79 -5.8677496e+00 4.41e-10 4.78e-09  -9.0 4.86e-03    -  1.00e+00 1.00e+00h  1

Number of Iterations....: 79

                                   (scaled)                 (unscaled)
Objective...............:  -4.5841793572623377e+00   -5.8677495772957924e+00
Dual infeasibility......:   4.7787544326943671e-09    6.1168056738487904e-09
Constraint violation....:   4.4078856125014110e-10    4.4078856125014110e-10
Complementarity.........:   1.3547846242269544e-09    1.7341243190105015e-09
Overall NLP error.......:   4.7787544326943671e-09    6.1168056738487904e-09


Number of objective function evaluations             = 105
Number of objective gradient evaluations             = 80
Number of equality constraint evaluations            = 105
Number of inequality constraint evaluations          = 105
Number of equality constraint Jacobian evaluations   = 81
Number of inequality constraint Jacobian evaluations = 81
Number of Lagrangian Hessian evaluations             = 79
Total CPU secs in IPOPT (w/o function evaluations)   =    203.797
Total CPU secs in NLP function evaluations           =      3.024

EXIT: Optimal Solution Found.
